objective value:                                    8
lambda[0,16]*                                       3 	(obj:0)
lambda[0,21]*                                       3 	(obj:0)
lambda[0,24]*                                       1 	(obj:0)
lambda[0,25]*                                       1 	(obj:0)
lambda[1,67]*                                       1 	(obj:8)
lambda[0,28]*                                       2 	(obj:0)
